atom_style hybrid angle sphere
units si
processors	* * 1
comm_modify vel yes

region simulationStation block -1.025 1.025 -2.0 2.0 -0.05 0.05
create_box 400 simulationStation bond/types 100000 extra/bond/per/atom 100 angle/types 10000 extra/angle/per/atom 100
change_box	all boundary p p p

pair_style hybrid/overlay granular lj/cut 0
pair_coeff  * * granular hertz/material 0 0 0 tangential linear_nohistory 0 0
pair_coeff  * * lj/cut 0 0 0

special_bonds lj/coul 0 1.0 1.0
bond_style harmonic
angle_style cosine

bond_coeff * 0 0
angle_coeff * 0
fix integration all nve/sphere
neigh_modify page 500000 one 50000


### Here we will begin to include particles ###


fix fix_walls_1 all wall/gran/region granular hertz/material 10000 0.25 0.25 tangential linear_nohistory 0 0 region simulationStation
pair_coeff * * granular hertz/material 10000 0 0.5 tangential linear_nohistory 0 0

include beam_1.txt 
set type 1 diameter 0.003
set type 1 density 0.5
bond_coeff 1 58.77424405899135 0.007656414934887768
include bonds_1.txt
angle_coeff 1 8.816136608848702e-05
include angles_1.txt
pair_coeff 1 1 granular hertz/material 0 0 0.5 tangential linear_nohistory 0 0

include beam_2.txt 
set type 2 diameter 0.003
set type 2 density 0.5
bond_coeff 2 87.78379961651878 0.005126230602523623
include bonds_2.txt
angle_coeff 2 0.00013167569942477817
include angles_2.txt
pair_coeff 2 2 granular hertz/material 0 0 0.5 tangential linear_nohistory 0 0

include beam_3.txt 
set type 3 diameter 0.003
set type 3 density 0.5
bond_coeff 3 76.36934854547519 0.005892416376081056
include bonds_3.txt
angle_coeff 3 0.0001145540228182128
include angles_3.txt
pair_coeff 3 3 granular hertz/material 0 0 0.5 tangential linear_nohistory 0 0

include beam_4.txt 
set type 4 diameter 0.003
set type 4 density 0.5
bond_coeff 4 70.7735618633366 0.006358306522270955
include bonds_4.txt
angle_coeff 4 0.0001061603427950049
include angles_4.txt
pair_coeff 4 4 granular hertz/material 0 0 0.5 tangential linear_nohistory 0 0

include beam_5.txt 
set type 5 diameter 0.003
set type 5 density 0.5
bond_coeff 5 39.4189665897941 0.011415824384308155
include bonds_5.txt
angle_coeff 5 5.912844988469116e-05
include angles_5.txt
pair_coeff 5 5 granular hertz/material 0 0 0.5 tangential linear_nohistory 0 0

include beam_6.txt 
set type 6 diameter 0.003
set type 6 density 0.5
bond_coeff 6 42.65525939255498 0.010549695545364394
include bonds_6.txt
angle_coeff 6 6.398288908883248e-05
include angles_6.txt
pair_coeff 6 6 granular hertz/material 0 0 0.5 tangential linear_nohistory 0 0

include beam_7.txt 
set type 7 diameter 0.003
set type 7 density 0.5
bond_coeff 7 37.36204131397991 0.012044309790739985
include bonds_7.txt
angle_coeff 7 5.6043061970969865e-05
include angles_7.txt
pair_coeff 7 7 granular hertz/material 0 0 0.5 tangential linear_nohistory 0 0

include beam_8.txt 
set type 8 diameter 0.003
set type 8 density 0.5
bond_coeff 8 63.60180833712965 0.007075270527132131
include bonds_8.txt
angle_coeff 8 9.540271250569448e-05
include angles_8.txt
pair_coeff 8 8 granular hertz/material 0 0 0.5 tangential linear_nohistory 0 0

include beam_9.txt 
set type 9 diameter 0.003
set type 9 density 0.5
bond_coeff 9 73.64541056179458 0.006110360395403225
include bonds_9.txt
angle_coeff 9 0.00011046811584269188
include angles_9.txt
pair_coeff 9 9 granular hertz/material 0 0 0.5 tangential linear_nohistory 0 0

include beam_10.txt 
set type 10 diameter 0.003
set type 10 density 0.5
bond_coeff 10 60.45295762687637 0.007443804532732036
include bonds_10.txt
angle_coeff 10 9.067943644031457e-05
include angles_10.txt
pair_coeff 10 10 granular hertz/material 0 0 0.5 tangential linear_nohistory 0 0

include beam_11.txt 
set type 11 diameter 0.003
set type 11 density 0.5
bond_coeff 11 52.75149844540244 0.008530563363346882
include bonds_11.txt
angle_coeff 11 7.912724766810367e-05
include angles_11.txt
pair_coeff 11 11 granular hertz/material 0 0 0.5 tangential linear_nohistory 0 0

include beam_12.txt 
set type 12 diameter 0.003
set type 12 density 0.5
bond_coeff 12 50.758617163383086 0.008865489746332706
include bonds_12.txt
angle_coeff 12 7.613792574507463e-05
include angles_12.txt
pair_coeff 12 12 granular hertz/material 0 0 0.5 tangential linear_nohistory 0 0

include beam_13.txt 
set type 13 diameter 0.003
set type 13 density 0.5
bond_coeff 13 50.192307692307665 0.008965517241379315
include bonds_13.txt
angle_coeff 13 7.52884615384615e-05
include angles_13.txt
pair_coeff 13 13 granular hertz/material 0 0 0.5 tangential linear_nohistory 0 0

include beam_14.txt 
set type 14 diameter 0.003
set type 14 density 0.5
bond_coeff 14 55.0481025495525 0.008174668683537724
include bonds_14.txt
angle_coeff 14 8.257215382432876e-05
include angles_14.txt
pair_coeff 14 14 granular hertz/material 0 0 0.5 tangential linear_nohistory 0 0

include beam_15.txt 
set type 15 diameter 0.003
set type 15 density 0.5
bond_coeff 15 47.525296907582195 0.009468641529479996
include bonds_15.txt
angle_coeff 15 7.12879453613733e-05
include angles_15.txt
pair_coeff 15 15 granular hertz/material 0 0 0.5 tangential linear_nohistory 0 0

include beam_16.txt 
set type 16 diameter 0.003
set type 16 density 0.5
bond_coeff 16 52.7514984454024 0.008530563363346889
include bonds_16.txt
angle_coeff 16 7.91272476681036e-05
include angles_16.txt
pair_coeff 16 16 granular hertz/material 0 0 0.5 tangential linear_nohistory 0 0

include beam_17.txt 
set type 17 diameter 0.003
set type 17 density 0.5
bond_coeff 17 35.58355787548609 0.012646290221304991
include bonds_17.txt
angle_coeff 17 5.3375336813229145e-05
include angles_17.txt
pair_coeff 17 17 granular hertz/material 0 0 0.5 tangential linear_nohistory 0 0

include beam_18.txt 
set type 18 diameter 0.003
set type 18 density 0.5
bond_coeff 18 38.15202383985574 0.011794918190680747
include bonds_18.txt
angle_coeff 18 5.722803575978361e-05
include angles_18.txt
pair_coeff 18 18 granular hertz/material 0 0 0.5 tangential linear_nohistory 0 0

include beam_19.txt 
set type 19 diameter 0.003
set type 19 density 0.5
bond_coeff 19 57.843108036720714 0.007779664946674808
include bonds_19.txt
angle_coeff 19 8.676466205508108e-05
include angles_19.txt
pair_coeff 19 19 granular hertz/material 0 0 0.5 tangential linear_nohistory 0 0

include beam_20.txt 
set type 20 diameter 0.003
set type 20 density 0.5
bond_coeff 20 56.10633224120141 0.008020485068698622
include bonds_20.txt
angle_coeff 20 8.415949836180212e-05
include angles_20.txt
pair_coeff 20 20 granular hertz/material 0 0 0.5 tangential linear_nohistory 0 0

include beam_21.txt 
set type 21 diameter 0.003
set type 21 density 0.5
bond_coeff 21 53.232060323232275 0.008453552187676733
include bonds_21.txt
angle_coeff 21 7.984809048484841e-05
include angles_21.txt
pair_coeff 21 21 granular hertz/material 0 0 0.5 tangential linear_nohistory 0 0

include beam_22.txt 
set type 22 diameter 0.003
set type 22 density 0.5
bond_coeff 22 60.58310408026312 0.007427813527082081
include bonds_22.txt
angle_coeff 22 9.087465612039468e-05
include angles_22.txt
pair_coeff 22 22 granular hertz/material 0 0 0.5 tangential linear_nohistory 0 0

include beam_23.txt 
set type 23 diameter 0.003
set type 23 density 0.5
bond_coeff 23 75.85158428034191 0.005932638115201826
include bonds_23.txt
angle_coeff 23 0.00011377737642051287
include angles_23.txt
pair_coeff 23 23 granular hertz/material 0 0 0.5 tangential linear_nohistory 0 0

include beam_24.txt 
set type 24 diameter 0.003
set type 24 density 0.5
bond_coeff 24 41.901024764182786 0.010739594139584443
include bonds_24.txt
angle_coeff 24 6.285153714627418e-05
include angles_24.txt
pair_coeff 24 24 granular hertz/material 0 0 0.5 tangential linear_nohistory 0 0

include beam_25.txt 
set type 25 diameter 0.003
set type 25 density 0.5
bond_coeff 25 47.18237457555773 0.009537459783406432
include bonds_25.txt
angle_coeff 25 7.07735618633366e-05
include angles_25.txt
pair_coeff 25 25 granular hertz/material 0 0 0.5 tangential linear_nohistory 0 0

include beam_26.txt 
set type 26 diameter 0.003
set type 26 density 0.5
bond_coeff 26 41.08326288884144 0.010953365637426618
include bonds_26.txt
angle_coeff 26 6.162489433326216e-05
include angles_26.txt
pair_coeff 26 26 granular hertz/material 0 0 0.5 tangential linear_nohistory 0 0

include beam_27.txt 
set type 27 diameter 0.003
set type 27 density 0.5
bond_coeff 27 45.5448140325754 0.009880378470271999
include bonds_27.txt
angle_coeff 27 6.831722104886311e-05
include angles_27.txt
pair_coeff 27 27 granular hertz/material 0 0 0.5 tangential linear_nohistory 0 0

include beam_28.txt 
set type 28 diameter 0.003
set type 28 density 0.5
bond_coeff 28 58.071737813443036 0.007749036225601457
include bonds_28.txt
angle_coeff 28 8.710760672016456e-05
include angles_28.txt
pair_coeff 28 28 granular hertz/material 0 0 0.5 tangential linear_nohistory 0 0

include beam_29.txt 
set type 29 diameter 0.003
set type 29 density 0.5
bond_coeff 29 73.64541056179452 0.006110360395403231
include bonds_29.txt
angle_coeff 29 0.00011046811584269179
include angles_29.txt
pair_coeff 29 29 granular hertz/material 0 0 0.5 tangential linear_nohistory 0 0

include beam_30.txt 
set type 30 diameter 0.003
set type 30 density 0.5
bond_coeff 30 41.75064890185171 0.010778275591784677
include bonds_30.txt
angle_coeff 30 6.262597335277756e-05
include angles_30.txt
pair_coeff 30 30 granular hertz/material 0 0 0.5 tangential linear_nohistory 0 0

include beam_31.txt 
set type 31 diameter 0.003
set type 31 density 0.5
bond_coeff 31 79.12724766810385 0.005687042242231241
include bonds_31.txt
angle_coeff 31 0.00011869087150215578
include angles_31.txt
pair_coeff 31 31 granular hertz/material 0 0 0.5 tangential linear_nohistory 0 0

include beam_32.txt 
set type 32 diameter 0.003
set type 32 density 0.5
bond_coeff 32 75.59662025043559 0.005952647069528311
include bonds_32.txt
angle_coeff 32 0.00011339493037565338
include angles_32.txt
pair_coeff 32 32 granular hertz/material 0 0 0.5 tangential linear_nohistory 0 0

include beam_33.txt 
set type 33 diameter 0.003
set type 33 density 0.5
bond_coeff 33 41.55966653322596 0.010827805840074194
include bonds_33.txt
angle_coeff 33 6.233949979983894e-05
include angles_33.txt
pair_coeff 33 33 granular hertz/material 0 0 0.5 tangential linear_nohistory 0 0

include beam_34.txt 
set type 34 diameter 0.003
set type 34 density 0.5
bond_coeff 34 58.071737813443015 0.007749036225601459
include bonds_34.txt
angle_coeff 34 8.710760672016452e-05
include angles_34.txt
pair_coeff 34 34 granular hertz/material 0 0 0.5 tangential linear_nohistory 0 0

include beam_35.txt 
set type 35 diameter 0.003
set type 35 density 0.5
bond_coeff 35 72.9517177659306 0.00616846338620632
include bonds_35.txt
angle_coeff 35 0.00010942757664889589
include angles_35.txt
pair_coeff 35 35 granular hertz/material 0 0 0.5 tangential linear_nohistory 0 0

include beam_36.txt 
set type 36 diameter 0.003
set type 36 density 0.5
bond_coeff 36 50.304053228083404 0.00894560122142955
include bonds_36.txt
angle_coeff 36 7.545607984212512e-05
include angles_36.txt
pair_coeff 36 36 granular hertz/material 0 0 0.5 tangential linear_nohistory 0 0

include beam_37.txt 
set type 37 diameter 0.003
set type 37 density 0.5
bond_coeff 37 46.786516744680334 0.009618155642056113
include bonds_37.txt
angle_coeff 37 7.017977511702052e-05
include angles_37.txt
pair_coeff 37 37 granular hertz/material 0 0 0.5 tangential linear_nohistory 0 0

include beam_38.txt 
set type 38 diameter 0.003
set type 38 density 0.5
bond_coeff 38 75.85158428034204 0.005932638115201816
include bonds_38.txt
angle_coeff 38 0.00011377737642051306
include angles_38.txt
pair_coeff 38 38 granular hertz/material 0 0 0.5 tangential linear_nohistory 0 0

include beam_39.txt 
set type 39 diameter 0.003
set type 39 density 0.5
bond_coeff 39 46.78651674468036 0.009618155642056108
include bonds_39.txt
angle_coeff 39 7.017977511702054e-05
include angles_39.txt
pair_coeff 39 39 granular hertz/material 0 0 0.5 tangential linear_nohistory 0 0

include beam_40.txt 
set type 40 diameter 0.003
set type 40 density 0.5
bond_coeff 40 83.37339173249221 0.005397405462930524
include bonds_40.txt
angle_coeff 40 0.00012506008759873832
include angles_40.txt
pair_coeff 40 40 granular hertz/material 0 0 0.5 tangential linear_nohistory 0 0

include beam_41.txt 
set type 41 diameter 0.003
set type 41 density 0.5
bond_coeff 41 43.891899808259325 0.010252461205047261
include bonds_41.txt
angle_coeff 41 6.583784971238899e-05
include angles_41.txt
pair_coeff 41 41 granular hertz/material 0 0 0.5 tangential linear_nohistory 0 0

include beam_42.txt 
set type 42 diameter 0.003
set type 42 density 0.5
bond_coeff 42 85.31051878511016 0.005274847772682185
include bonds_42.txt
angle_coeff 42 0.00012796577817766525
include angles_42.txt
pair_coeff 42 42 granular hertz/material 0 0 0.5 tangential linear_nohistory 0 0

include beam_43.txt 
set type 43 diameter 0.003
set type 43 density 0.5
bond_coeff 43 48.90694270697987 0.009201147630431972
include bonds_43.txt
angle_coeff 43 7.33604140604698e-05
include angles_43.txt
pair_coeff 43 43 granular hertz/material 0 0 0.5 tangential linear_nohistory 0 0

include beam_44.txt 
set type 44 diameter 0.003
set type 44 density 0.5
bond_coeff 44 47.811500680437035 0.009411961423418066
include bonds_44.txt
angle_coeff 44 7.171725102065556e-05
include angles_44.txt
pair_coeff 44 44 granular hertz/material 0 0 0.5 tangential linear_nohistory 0 0

include beam_45.txt 
set type 45 diameter 0.003
set type 45 density 0.5
bond_coeff 45 35.27027027027031 0.012758620689655158
include bonds_45.txt
angle_coeff 45 5.290540540540546e-05
include angles_45.txt
pair_coeff 45 45 granular hertz/material 0 0 0.5 tangential linear_nohistory 0 0

include beam_46.txt 
set type 46 diameter 0.003
set type 46 density 0.5
bond_coeff 46 44.34570520849576 0.010147544116939399
include bonds_46.txt
angle_coeff 46 6.651855781274364e-05
include angles_46.txt
pair_coeff 46 46 granular hertz/material 0 0 0.5 tangential linear_nohistory 0 0

include beam_47.txt 
set type 47 diameter 0.003
set type 47 density 0.5
bond_coeff 47 55.294624618218215 0.008138223256004095
include bonds_47.txt
angle_coeff 47 8.294193692732733e-05
include angles_47.txt
pair_coeff 47 47 granular hertz/material 0 0 0.5 tangential linear_nohistory 0 0

include beam_48.txt 
set type 48 diameter 0.003
set type 48 density 0.5
bond_coeff 48 46.341908780905385 0.009710432993330154
include bonds_48.txt
angle_coeff 48 6.951286317135809e-05
include angles_48.txt
pair_coeff 48 48 granular hertz/material 0 0 0.5 tangential linear_nohistory 0 0

include beam_49.txt 
set type 49 diameter 0.003
set type 49 density 0.5
bond_coeff 49 65.25000000000004 0.006896551724137927
include bonds_49.txt
angle_coeff 49 9.787500000000008e-05
include angles_49.txt
pair_coeff 49 49 granular hertz/material 0 0 0.5 tangential linear_nohistory 0 0

include beam_50.txt 
set type 50 diameter 0.003
set type 50 density 0.5
bond_coeff 50 122.76407332405988 0.003665567521632625
include bonds_50.txt
angle_coeff 50 0.00018414610998608984
include angles_50.txt
pair_coeff 50 50 granular hertz/material 0 0 0.5 tangential linear_nohistory 0 0

include beam_51.txt 
set type 51 diameter 0.003
set type 51 density 0.5
bond_coeff 51 50.1923076923077 0.00896551724137931
include bonds_51.txt
angle_coeff 51 7.528846153846156e-05
include angles_51.txt
pair_coeff 51 51 granular hertz/material 0 0 0.5 tangential linear_nohistory 0 0

include beam_52.txt 
set type 52 diameter 0.003
set type 52 density 0.5
bond_coeff 52 89.62776797651955 0.005020765440883118
include bonds_52.txt
angle_coeff 52 0.00013444165196477932
include angles_52.txt
pair_coeff 52 52 granular hertz/material 0 0 0.5 tangential linear_nohistory 0 0

include beam_53.txt 
set type 53 diameter 0.003
set type 53 density 0.5
bond_coeff 53 38.821408654394595 0.011591542285497667
include bonds_53.txt
angle_coeff 53 5.82321129815919e-05
include angles_53.txt
pair_coeff 53 53 granular hertz/material 0 0 0.5 tangential linear_nohistory 0 0

include beam_54.txt 
set type 54 diameter 0.003
set type 54 density 0.5
bond_coeff 54 101.90337963231534 0.004415947749953694
include bonds_54.txt
angle_coeff 54 0.000152855069448473
include angles_54.txt
pair_coeff 54 54 granular hertz/material 0 0 0.5 tangential linear_nohistory 0 0

include beam_55.txt 
set type 55 diameter 0.003
set type 55 density 0.5
bond_coeff 55 53.232060323232304 0.008453552187676728
include bonds_55.txt
angle_coeff 55 7.984809048484845e-05
include angles_55.txt
pair_coeff 55 55 granular hertz/material 0 0 0.5 tangential linear_nohistory 0 0

include beam_56.txt 
set type 56 diameter 0.003
set type 56 density 0.5
bond_coeff 56 43.89189980825939 0.010252461205047246
include bonds_56.txt
angle_coeff 56 6.583784971238909e-05
include angles_56.txt
pair_coeff 56 56 granular hertz/material 0 0 0.5 tangential linear_nohistory 0 0

include beam_57.txt 
set type 57 diameter 0.003
set type 57 density 0.5
bond_coeff 57 52.200000000000024 0.00862068965517241
include bonds_57.txt
angle_coeff 57 7.830000000000003e-05
include angles_57.txt
pair_coeff 57 57 granular hertz/material 0 0 0.5 tangential linear_nohistory 0 0

include beam_58.txt 
set type 58 diameter 0.003
set type 58 density 0.5
bond_coeff 58 63.301798134482944 0.007108802802789066
include bonds_58.txt
angle_coeff 58 9.495269720172441e-05
include angles_58.txt
pair_coeff 58 58 granular hertz/material 0 0 0.5 tangential linear_nohistory 0 0

include beam_59.txt 
set type 59 diameter 0.003
set type 59 density 0.5
bond_coeff 59 67.84371946075984 0.0066328910557487296
include bonds_59.txt
angle_coeff 59 0.00010176557919113978
include angles_59.txt
pair_coeff 59 59 granular hertz/material 0 0 0.5 tangential linear_nohistory 0 0

include beam_60.txt 
set type 60 diameter 0.003
set type 60 density 0.5
bond_coeff 60 44.81388398825978 0.010041530881766235
include bonds_60.txt
angle_coeff 60 6.722082598238967e-05
include angles_60.txt
pair_coeff 60 60 granular hertz/material 0 0 0.5 tangential linear_nohistory 0 0

include beam_61.txt 
set type 61 diameter 0.003
set type 61 density 0.5
bond_coeff 61 52.75149844540237 0.008530563363346892
include bonds_61.txt
angle_coeff 61 7.912724766810356e-05
include angles_61.txt
pair_coeff 61 61 granular hertz/material 0 0 0.5 tangential linear_nohistory 0 0

include beam_62.txt 
set type 62 diameter 0.003
set type 62 density 0.5
bond_coeff 62 31.52137131336315 0.01427602865136858
include bonds_62.txt
angle_coeff 62 4.728205697004473e-05
include angles_62.txt
pair_coeff 62 62 granular hertz/material 0 0 0.5 tangential linear_nohistory 0 0

include beam_63.txt 
set type 63 diameter 0.003
set type 63 density 0.5
bond_coeff 63 57.11829829397932 0.007878385971583352
include bonds_63.txt
angle_coeff 63 8.567744744096899e-05
include angles_63.txt
pair_coeff 63 63 granular hertz/material 0 0 0.5 tangential linear_nohistory 0 0

include beam_64.txt 
set type 64 diameter 0.003
set type 64 density 0.5
bond_coeff 64 47.18237457555773 0.009537459783406432
include bonds_64.txt
angle_coeff 64 7.07735618633366e-05
include angles_64.txt
pair_coeff 64 64 granular hertz/material 0 0 0.5 tangential linear_nohistory 0 0

include beam_65.txt 
set type 65 diameter 0.003
set type 65 density 0.5
bond_coeff 65 53.90905310637476 0.008347392025455319
include bonds_65.txt
angle_coeff 65 8.086357965956215e-05
include angles_65.txt
pair_coeff 65 65 granular hertz/material 0 0 0.5 tangential linear_nohistory 0 0

include beam_66.txt 
set type 66 diameter 0.003
set type 66 density 0.5
bond_coeff 66 93.69353969961513 0.004802892509373819
include bonds_66.txt
angle_coeff 66 0.0001405403095494227
include angles_66.txt
pair_coeff 66 66 granular hertz/material 0 0 0.5 tangential linear_nohistory 0 0

include beam_67.txt 
set type 67 diameter 0.003
set type 67 density 0.5
bond_coeff 67 49.289169742682546 0.009129794686119802
include bonds_67.txt
angle_coeff 67 7.393375461402383e-05
include angles_67.txt
pair_coeff 67 67 granular hertz/material 0 0 0.5 tangential linear_nohistory 0 0

include beam_68.txt 
set type 68 diameter 0.003
set type 68 density 0.5
bond_coeff 68 74.72408262795997 0.00602215489536998
include bonds_68.txt
angle_coeff 68 0.00011208612394193996
include angles_68.txt
pair_coeff 68 68 granular hertz/material 0 0 0.5 tangential linear_nohistory 0 0

include beam_69.txt 
set type 69 diameter 0.003
set type 69 density 0.5
bond_coeff 69 57.228035759783694 0.007863278793787154
include bonds_69.txt
angle_coeff 69 8.584205363967554e-05
include angles_69.txt
pair_coeff 69 69 granular hertz/material 0 0 0.5 tangential linear_nohistory 0 0

include beam_70.txt 
set type 70 diameter 0.003
set type 70 density 0.5
bond_coeff 70 61.58675775288266 0.00730676555186796
include bonds_70.txt
angle_coeff 70 9.238013662932399e-05
include angles_70.txt
pair_coeff 70 70 granular hertz/material 0 0 0.5 tangential linear_nohistory 0 0

include beam_71.txt 
set type 71 diameter 0.003
set type 71 density 0.5
bond_coeff 71 57.843108036720714 0.007779664946674808
include bonds_71.txt
angle_coeff 71 8.676466205508108e-05
include angles_71.txt
pair_coeff 71 71 granular hertz/material 0 0 0.5 tangential linear_nohistory 0 0

include beam_72.txt 
set type 72 diameter 0.003
set type 72 density 0.5
bond_coeff 72 52.751498445402426 0.008530563363346884
include bonds_72.txt
angle_coeff 72 7.912724766810364e-05
include angles_72.txt
pair_coeff 72 72 granular hertz/material 0 0 0.5 tangential linear_nohistory 0 0

include beam_73.txt 
set type 73 diameter 0.003
set type 73 density 0.5
bond_coeff 73 72.38837560739243 0.00621646771631722
include bonds_73.txt
angle_coeff 73 0.00010858256341108866
include angles_73.txt
pair_coeff 73 73 granular hertz/material 0 0 0.5 tangential linear_nohistory 0 0

include beam_74.txt 
set type 74 diameter 0.003
set type 74 density 0.5
bond_coeff 74 58.071737813443015 0.007749036225601459
include bonds_74.txt
angle_coeff 74 8.710760672016452e-05
include angles_74.txt
pair_coeff 74 74 granular hertz/material 0 0 0.5 tangential linear_nohistory 0 0

include beam_75.txt 
set type 75 diameter 0.003
set type 75 density 0.5
bond_coeff 75 52.75149844540244 0.008530563363346882
include bonds_75.txt
angle_coeff 75 7.912724766810367e-05
include angles_75.txt
pair_coeff 75 75 granular hertz/material 0 0 0.5 tangential linear_nohistory 0 0

include beam_76.txt 
set type 76 diameter 0.003
set type 76 density 0.5
bond_coeff 76 58.36137421274443 0.007710579232757906
include bonds_76.txt
angle_coeff 76 8.754206131911665e-05
include angles_76.txt
pair_coeff 76 76 granular hertz/material 0 0 0.5 tangential linear_nohistory 0 0

include beam_77.txt 
set type 77 diameter 0.003
set type 77 density 0.5
bond_coeff 77 46.8467698498074 0.00960578501874767
include bonds_77.txt
angle_coeff 77 7.027015477471112e-05
include angles_77.txt
pair_coeff 77 77 granular hertz/material 0 0 0.5 tangential linear_nohistory 0 0

include beam_78.txt 
set type 78 diameter 0.003
set type 78 density 0.5
bond_coeff 78 58.361374212744565 0.007710579232757889
include bonds_78.txt
angle_coeff 78 8.754206131911685e-05
include angles_78.txt
pair_coeff 78 78 granular hertz/material 0 0 0.5 tangential linear_nohistory 0 0

include beam_79.txt 
set type 79 diameter 0.003
set type 79 density 0.5
bond_coeff 79 67.21091944251091 0.006695340634119862
include bonds_79.txt
angle_coeff 79 0.00010081637916376639
include angles_79.txt
pair_coeff 79 79 granular hertz/material 0 0 0.5 tangential linear_nohistory 0 0

include beam_80.txt 
set type 80 diameter 0.003
set type 80 density 0.5
bond_coeff 80 43.11841367969462 0.010436376517532105
include bonds_80.txt
angle_coeff 80 6.467762051954192e-05
include angles_80.txt
pair_coeff 80 80 granular hertz/material 0 0 0.5 tangential linear_nohistory 0 0

include beam_81.txt 
set type 81 diameter 0.003
set type 81 density 0.5
bond_coeff 81 53.63516960837274 0.00839001728316997
include bonds_81.txt
angle_coeff 81 8.045275441255911e-05
include angles_81.txt
pair_coeff 81 81 granular hertz/material 0 0 0.5 tangential linear_nohistory 0 0

include beam_82.txt 
set type 82 diameter 0.003
set type 82 density 0.5
bond_coeff 82 62.07251998716148 0.00724958484194091
include bonds_82.txt
angle_coeff 82 9.310877998074222e-05
include angles_82.txt
pair_coeff 82 82 granular hertz/material 0 0 0.5 tangential linear_nohistory 0 0

include beam_83.txt 
set type 83 diameter 0.003
set type 83 density 0.5
bond_coeff 83 45.215570096059274 0.009952323923904684
include bonds_83.txt
angle_coeff 83 6.782335514408892e-05
include angles_83.txt
pair_coeff 83 83 granular hertz/material 0 0 0.5 tangential linear_nohistory 0 0

include beam_84.txt 
set type 84 diameter 0.003
set type 84 density 0.5
bond_coeff 84 37.04457536618881 0.012147527554350708
include bonds_84.txt
angle_coeff 84 5.556686304928321e-05
include angles_84.txt
pair_coeff 84 84 granular hertz/material 0 0 0.5 tangential linear_nohistory 0 0

include beam_85.txt 
set type 85 diameter 0.003
set type 85 density 0.5
bond_coeff 85 51.54440098605205 0.008730337173222176
include bonds_85.txt
angle_coeff 85 7.731660147907808e-05
include angles_85.txt
pair_coeff 85 85 granular hertz/material 0 0 0.5 tangential linear_nohistory 0 0

include beam_86.txt 
set type 86 diameter 0.003
set type 86 density 0.5
bond_coeff 86 57.67339684052764 0.0078025575855067515
include bonds_86.txt
angle_coeff 86 8.651009526079147e-05
include angles_86.txt
pair_coeff 86 86 granular hertz/material 0 0 0.5 tangential linear_nohistory 0 0

include beam_87.txt 
set type 87 diameter 0.003
set type 87 density 0.5
bond_coeff 87 32.44301841317671 0.013870472662840546
include bonds_87.txt
angle_coeff 87 4.8664527619765065e-05
include angles_87.txt
pair_coeff 87 87 granular hertz/material 0 0 0.5 tangential linear_nohistory 0 0

include beam_88.txt 
set type 88 diameter 0.003
set type 88 density 0.5
bond_coeff 88 59.502878212675654 0.007562659379124594
include bonds_88.txt
angle_coeff 88 8.925431731901348e-05
include angles_88.txt
pair_coeff 88 88 granular hertz/material 0 0 0.5 tangential linear_nohistory 0 0

include beam_89.txt 
set type 89 diameter 0.003
set type 89 density 0.5
bond_coeff 89 95.94550818324203 0.0046901622443915264
include bonds_89.txt
angle_coeff 89 0.00014391826227486306
include angles_89.txt
pair_coeff 89 89 granular hertz/material 0 0 0.5 tangential linear_nohistory 0 0

include beam_90.txt 
set type 90 diameter 0.003
set type 90 density 0.5
bond_coeff 90 72.3883756073924 0.006216467716317222
include bonds_90.txt
angle_coeff 90 0.0001085825634110886
include angles_90.txt
pair_coeff 90 90 granular hertz/material 0 0 0.5 tangential linear_nohistory 0 0

include beam_91.txt 
set type 91 diameter 0.003
set type 91 density 0.5
bond_coeff 91 85.67744744096893 0.005252257314388904
include bonds_91.txt
angle_coeff 91 0.0001285161711614534
include angles_91.txt
pair_coeff 91 91 granular hertz/material 0 0 0.5 tangential linear_nohistory 0 0

include beam_92.txt 
set type 92 diameter 0.003
set type 92 density 0.5
bond_coeff 92 55.04810254955252 0.008174668683537722
include bonds_92.txt
angle_coeff 92 8.257215382432877e-05
include angles_92.txt
pair_coeff 92 92 granular hertz/material 0 0 0.5 tangential linear_nohistory 0 0

include beam_93.txt 
set type 93 diameter 0.003
set type 93 density 0.5
bond_coeff 93 42.838723720484495 0.010504514628777802
include bonds_93.txt
angle_coeff 93 6.425808558072674e-05
include angles_93.txt
pair_coeff 93 93 granular hertz/material 0 0 0.5 tangential linear_nohistory 0 0

include beam_94.txt 
set type 94 diameter 0.003
set type 94 density 0.5
bond_coeff 94 52.2 0.008620689655172414
include bonds_94.txt
angle_coeff 94 7.830000000000002e-05
include angles_94.txt
pair_coeff 94 94 granular hertz/material 0 0 0.5 tangential linear_nohistory 0 0

include beam_95.txt 
set type 95 diameter 0.003
set type 95 density 0.5
bond_coeff 95 87.00000000000001 0.005172413793103447
include bonds_95.txt
angle_coeff 95 0.00013050000000000003
include angles_95.txt
pair_coeff 95 95 granular hertz/material 0 0 0.5 tangential linear_nohistory 0 0

include beam_96.txt 
set type 96 diameter 0.003
set type 96 density 0.5
bond_coeff 96 97.26895702124072 0.004626347539654744
include bonds_96.txt
angle_coeff 96 0.00014590343553186108
include angles_96.txt
pair_coeff 96 96 granular hertz/material 0 0 0.5 tangential linear_nohistory 0 0

include beam_97.txt 
set type 97 diameter 0.003
set type 97 density 0.5
bond_coeff 97 52.83790554417423 0.008516613127743778
include bonds_97.txt
angle_coeff 97 7.925685831626134e-05
include angles_97.txt
pair_coeff 97 97 granular hertz/material 0 0 0.5 tangential linear_nohistory 0 0

include beam_98.txt 
set type 98 diameter 0.003
set type 98 density 0.5
bond_coeff 98 49.71654048380475 0.009051313619590814
include bonds_98.txt
angle_coeff 98 7.457481072570712e-05
include angles_98.txt
pair_coeff 98 98 granular hertz/material 0 0 0.5 tangential linear_nohistory 0 0

include beam_99.txt 
set type 99 diameter 0.003
set type 99 density 0.5
bond_coeff 99 42.83872372048448 0.010504514628777805
include bonds_99.txt
angle_coeff 99 6.425808558072672e-05
include angles_99.txt
pair_coeff 99 99 granular hertz/material 0 0 0.5 tangential linear_nohistory 0 0

include beam_100.txt 
set type 100 diameter 0.003
set type 100 density 0.5
bond_coeff 100 44.577950815956385 0.010094676667796166
include bonds_100.txt
angle_coeff 100 6.686692622393458e-05
include angles_100.txt
pair_coeff 100 100 granular hertz/material 0 0 0.5 tangential linear_nohistory 0 0

include beam_101.txt 
set type 101 diameter 0.003
set type 101 density 0.5
bond_coeff 101 69.45814155131157 0.006478722147605498
include bonds_101.txt
angle_coeff 101 0.00010418721232696737
include angles_101.txt
pair_coeff 101 101 granular hertz/material 0 0 0.5 tangential linear_nohistory 0 0

include beam_102.txt 
set type 102 diameter 0.003
set type 102 density 0.5
bond_coeff 102 79.12724766810348 0.005687042242231267
include bonds_102.txt